set PLANTA := 1 2 3 4 5;
set TIPO := 35 42;
set TRIMESTRE := 1 2 3 4;
set MAQUINA := "D5" "C4" "D6" "U2" "T" "K4" "J6" "70" "1" "V1";

param planta_maquina :=
"D5"  1
"D6"  1
"C4"  1
"T"   2
"U2"  2
"K4"  3
"J6"  3
"70"  3
"1"   4
"V1"  5
;
param produz_tipo :=
"D5" 35 1
"D5" 42 1
"D6" 35 1
"D6" 42 1
"C4" 35 1
"C4" 42 1
"T"  35 0
"T"  42 1
"U2" 35 1
"U2" 42 1
"K4" 35 1
"K4" 42 1
"J6" 35 1
"J6" 42 1
"70" 35 1
"70" 42 1
"1"  35 1
"1"  42 1
"V1" 35 0
"V1" 42 1
;

param demanda :=
[1, 35, 1] 138
[1, 35, 2] 142
[1, 35, 3] 139
[1, 35, 4] 140
[2, 35, 1] 82
[2, 35, 2] 84
[2, 35, 3] 83
[2, 35, 4] 84
[3, 35, 1] 32
[3, 35, 2] 33
[3, 35, 3] 34
[3, 35, 4] 36
[4, 35, 1] 61
[4, 35, 2] 66
[4, 35, 3] 67
[4, 35, 4] 75
[5, 35, 1] 0
[5, 35, 2] 0
[5, 35, 3] 0
[5, 35, 4] 0
[1, 42, 1] 284
[1, 42, 2] 278
[1, 42, 3] 305
[1, 42, 4] 322
[2, 42, 1] 226
[2, 42, 2] 255
[2, 42, 3] 272
[2, 42, 4] 289
[3, 42, 1] 141
[3, 42, 2] 160
[3, 42, 3] 175
[3, 42, 4] 188
[4, 42, 1] 134
[4, 42, 2] 116
[4, 42, 3] 126
[4, 42, 4] 130
[5, 42, 1] 1168
[5, 42, 2] 1138
[5, 42, 3] 1204
[5, 42, 4] 1206
;

param custo :=
"D5" 35 760
"D5" 42 454
"D6" 35 879
"D6" 42 476
"C4" 35 733
"C4" 42 529
"T"  42 520
"U2" 35 790
"U2" 42 668
"K4" 35 758
"K4" 42 509
"J6" 35 799
"J6" 42 521
"70" 35 888
"70" 42 625
"1"  35 933
"1"  42 538
"V1" 42 503
;
param dias_maquina :=
"D5" 35 0.097
"D5" 42 0.037
"D6" 35 0.103
"D6" 42 0.061
"C4" 35 0.080
"C4" 42 0.068
"T"  42 0.043
"U2" 35 0.109
"U2" 42 0.056
"K4" 35 0.119
"K4" 42 0.061
"J6" 35 0.119
"J6" 42 0.056
"70" 35 0.140
"70" 42 0.093
"1"  35 0.113
"1"  42 0.061
"V1" 42 0.061
;
param disponibilidade_maquina : 1 2 3 4 :=
"D5"  88 89 89 88
"D6"  72 63 58 65
"C4"  88 89 89 88
"T"   88 75 89 88
"U2"  81 88 87 55
"K4"  88 89 89 88
"J6"  37 89 39 86
"70"  54 84 85 73
"1"   42 71 70 68
"V1"  88 89 89 88
;

param custo_transporte: 1 2 3 4 5 :=
 1  0   226 274  93 357
 2 226   0  371 310 443
 3 274 371   0  227 168
 4  93 310 227   0  715
 5 357 443 168 715   0
;
param armazenamento :
  1    2    3    4 :=
1  376  325  348  410
2   55   47   62   58
3  875  642  573  813
4   10   15   30   24
5  103  103   30  410
;

param manuseio :
 35  42 :=
1  85  70
2  98  98
3  75  75
4  90  80
5   0  67
;

